# Cost: 363

# Tail Head Net
31 11 1
51 31 1
71 51 1
91 71 1
111 91 1
131 111 1
151 131 1
171 151 1
191 171 1
256 656 1
257 256 1
258 257 1
259 258 1
260 259 1
591 191 1
611 591 1
631 611 1
650 670 1
651 631 1
651 650 1
652 651 1
653 652 1
654 653 1
655 654 1
656 655 1
669 689 1
670 669 1
681 281 1
682 681 1
683 682 1
684 683 1
685 684 1
686 685 1
687 686 1
688 687 1
689 688 1
275 276 2
276 277 2
277 278 2
278 279 2
279 280 2
291 292 2
292 293 2
293 294 2
294 295 2
295 275 2
310 311 2
311 291 2
330 310 2
341 741 2
350 330 2
370 350 2
370 390 2
741 761 2
761 762 2
762 763 2
763 764 2
764 765 2
765 766 2
766 767 2
767 768 2
768 769 2
769 770 2
770 370 2
27 7 3
47 27 3
67 47 3
87 67 3
132 152 3
133 132 3
134 133 3
135 134 3
136 135 3
137 136 3
138 137 3
139 138 3
140 139 3
152 172 3
172 572 3
268 288 3
288 308 3
308 328 3
328 348 3
348 368 3
368 388 3
487 87 3
507 487 3
527 507 3
547 527 3
567 547 3
568 567 3
568 588 3
569 568 3
570 569 3
571 570 3
572 571 3
588 608 3
608 628 3
628 648 3
648 668 3
668 268 3
34 14 4
54 34 4
54 55 4
55 56 4
56 57 4
57 58 4
58 59 4
59 60 4
81 481 4
447 448 4
448 449 4
449 450 4
450 451 4
451 452 4
452 453 4
453 454 4
454 54 4
461 462 4
462 463 4
463 464 4
464 465 4
465 466 4
466 467 4
467 447 4
481 461 4
201 181 5
221 201 5
221 241 5
241 261 5
261 262 5
262 282 5
282 302 5
302 322 5
322 342 5
342 362 5
362 382 5
382 383 5
42 41 6
62 42 6
82 62 6
102 82 6
122 102 6
142 122 6
143 142 6
163 143 6
183 163 6
184 183 6
204 184 6
224 204 6
225 224 6
245 225 6
265 245 6
285 265 6
286 285 6
306 286 6
326 306 6
346 326 6
346 746 6
356 357 6
357 358 6
358 359 6
359 360 6
366 346 6
386 366 6
746 747 6
747 748 6
748 749 6
749 750 6
750 751 6
751 752 6
752 753 6
753 754 6
754 755 6
755 756 6
756 356 6
4 3 7
5 4 7
6 5 7
380 780 7
406 6 7
407 406 7
408 407 7
409 408 7
410 409 7
411 410 7
412 411 7
413 13 7
413 412 7
414 413 7
434 414 7
435 434 7
455 435 7
456 455 7
457 456 7
477 457 7
497 477 7
517 497 7
537 517 7
557 537 7
577 557 7
578 577 7
579 578 7
599 579 7
619 599 7
639 619 7
659 639 7
679 659 7
699 679 7
719 699 7
739 719 7
740 739 7
760 740 7
780 760 7
141 121 8
161 141 8
162 161 8
182 162 8
202 182 8
203 202 8
223 203 8
243 223 8
263 243 8
283 263 8
303 283 8
314 714 8
315 314 8
315 316 8
316 317 8
317 318 8
318 319 8
319 320 8
335 315 8
355 335 8
375 355 8
395 375 8
703 303 8
704 703 8
705 704 8
706 705 8
707 706 8
708 707 8
709 708 8
710 709 8
711 710 8
712 711 8
713 712 8
714 713 8
2 22 9
22 23 9
23 43 9
43 63 9
63 83 9
83 103 9
103 123 9
123 124 9
124 144 9
144 164 9
164 165 9
165 185 9
185 205 9
193 194 9
194 195 9
195 196 9
196 197 9
197 198 9
198 199 9
199 200 9
205 206 9
206 207 9
207 208 9
207 227 9
208 209 9
209 210 9
210 211 9
211 212 9
212 213 9
213 193 9
227 247 9
247 267 9
267 287 9
287 307 9
307 327 9
327 347 9
347 367 9
367 387 9
337 338 10
338 339 10
339 340 10
391 791 10
737 337 10
757 737 10
771 772 10
772 773 10
773 774 10
774 775 10
775 776 10
776 777 10
777 757 10
781 381 10
782 781 10
783 782 10
784 783 10
785 784 10
786 785 10
787 786 10
788 787 10
789 788 10
790 789 10
791 771 10
791 790 10
17 16 11
300 700 11
417 17 11
437 417 11
438 437 11
458 438 11
478 458 11
498 478 11
518 498 11
519 518 11
520 120 11
520 519 11
540 520 11
560 540 11
580 560 11
600 580 11
620 600 11
640 620 11
660 640 11
680 660 11
700 680 11
29 9 12
49 29 12
69 49 12
89 69 12
106 107 12
107 108 12
108 109 12
109 89 12
125 126 12
126 106 12
145 125 12
264 664 12
284 264 12
304 284 12
323 723 12
324 304 12
324 323 12
344 324 12
364 344 12
384 364 12
545 145 12
565 545 12
584 585 12
585 565 12
604 584 12
624 604 12
644 624 12
664 644 12
721 321 12
722 721 12
723 722 12
